p cnf 527 1221
a 31 36 41 46 51 56 61 67 73 79 85 91 0
e 526 527 0
a 25 26 27 28 29 30 0
e 2 3 4 5 6 7 8 10 11 13 14 16 17 19 20 22 23 34 35 39 40 44 45 49 50 54 55 59 60 65 66 71 72 77 78 83 84 89 90 95 96 97 98 99 100 101 102 9 12 15 18 21 24 32 33 37 38 42 43 47 48 52 53 57 58 62 63 64 68 69 70 74 75 76 80 81 82 86 87 88 92 93 94 104 106 108 110 112 114 103 105 107 109 111 113 115 116 117 118 119 120 122 123 124 125 126 127 128 129 130 131 132 133 134 135 136 138 137 174 179 184 189 194 199 204 210 216 222 228 234 0
a 168 169 170 171 172 173 0
e 145 146 147 148 149 150 151 153 154 156 157 159 160 162 163 165 166 177 178 182 183 187 188 192 193 197 198 202 203 208 209 214 215 220 221 226 227 232 233 238 239 240 241 242 243 244 245 152 155 158 161 164 167 175 176 180 181 185 186 190 191 195 196 200 201 205 206 207 211 212 213 217 218 219 223 224 225 229 230 231 235 236 237 247 249 251 253 255 257 246 248 250 252 254 256 258 259 260 261 262 263 265 266 267 268 269 270 271 272 273 274 275 276 277 278 279 281 280 141 142 319 324 329 334 339 344 349 355 361 367 373 379 0
a 313 314 315 316 317 318 0
e 290 291 292 293 294 295 296 298 299 301 302 304 305 307 308 310 311 322 323 327 328 332 333 337 338 342 343 347 348 353 354 359 360 365 366 371 372 377 378 383 384 385 386 387 388 389 390 297 300 303 306 309 312 320 321 325 326 330 331 335 336 340 341 345 346 350 351 352 356 357 358 362 363 364 368 369 370 374 375 376 380 381 382 392 394 396 398 400 402 391 393 395 397 399 401 403 404 405 406 407 408 410 411 412 413 414 415 416 417 418 419 420 421 422 423 424 426 425 284 285 286 287 429 430 431 465 470 475 480 485 490 495 501 507 513 519 525 0
7 -8 -526 0
8 -7 -526 0
9 -8 -526 0
8 -9 -526 0
10 -11 -526 0
11 -10 -526 0
12 -11 -526 0
11 -12 -526 0
13 -14 -526 0
14 -13 -526 0
15 -14 -526 0
14 -15 -526 0
16 -17 -526 0
17 -16 -526 0
18 -17 -526 0
17 -18 -526 0
19 -20 -526 0
20 -19 -526 0
21 -20 -526 0
20 -21 -526 0
22 -23 -526 0
23 -22 -526 0
24 -23 -526 0
23 -24 -526 0
34 -32 -526 0
34 -33 -526 0
32 33 -34 -526 0
34 -35 -526 0
35 -34 -526 0
39 -37 -526 0
39 -38 -526 0
37 38 -39 -526 0
39 -40 -526 0
40 -39 -526 0
44 -42 -526 0
44 -43 -526 0
42 43 -44 -526 0
44 -45 -526 0
45 -44 -526 0
49 -47 -526 0
49 -48 -526 0
47 48 -49 -526 0
49 -50 -526 0
50 -49 -526 0
54 -52 -526 0
54 -53 -526 0
52 53 -54 -526 0
54 -55 -526 0
55 -54 -526 0
59 -57 -526 0
59 -58 -526 0
57 58 -59 -526 0
59 -60 -526 0
60 -59 -526 0
65 -62 -526 0
65 -63 -526 0
65 -64 -526 0
62 63 64 -65 -526 0
65 -66 -526 0
66 -65 -526 0
71 -68 -526 0
71 -69 -526 0
71 -70 -526 0
68 69 70 -71 -526 0
71 -72 -526 0
72 -71 -526 0
77 -74 -526 0
77 -75 -526 0
77 -76 -526 0
74 75 76 -77 -526 0
77 -78 -526 0
78 -77 -526 0
83 -80 -526 0
83 -81 -526 0
83 -82 -526 0
80 81 82 -83 -526 0
83 -84 -526 0
84 -83 -526 0
89 -86 -526 0
89 -87 -526 0
89 -88 -526 0
86 87 88 -89 -526 0
89 -90 -526 0
90 -89 -526 0
95 -92 -526 0
95 -93 -526 0
95 -94 -526 0
92 93 94 -95 -526 0
95 -96 -526 0
96 -95 -526 0
61 -97 -526 0
97 -61 -526 0
67 -98 -526 0
98 -67 -526 0
73 -99 -526 0
99 -73 -526 0
79 -100 -526 0
100 -79 -526 0
85 -101 -526 0
101 -85 -526 0
91 -102 -526 0
102 -91 -526 0
61 -9 -526 0
31 -9 -526 0
9 -61 -31 -526 0
67 -12 -526 0
36 -12 -526 0
12 -67 -36 -526 0
73 -15 -526 0
41 -15 -526 0
15 -73 -41 -526 0
79 -18 -526 0
46 -18 -526 0
18 -79 -46 -526 0
85 -21 -526 0
51 -21 -526 0
21 -85 -51 -526 0
91 -24 -526 0
56 -24 -526 0
24 -91 -56 -526 0
61 -32 -526 0
103 -32 -526 0
32 -61 -103 -526 0
61 -33 -526 0
31 -33 -526 0
104 -33 -526 0
33 -61 -31 -104 -526 0
67 -37 -526 0
105 -37 -526 0
2 -37 -526 0
37 -67 -105 -2 -526 0
67 -38 -526 0
36 -38 -526 0
106 -38 -526 0
38 -67 -36 -106 -526 0
73 -42 -526 0
107 -42 -526 0
3 -42 -526 0
42 -73 -107 -3 -526 0
73 -43 -526 0
41 -43 -526 0
108 -43 -526 0
43 -73 -41 -108 -526 0
79 -47 -526 0
109 -47 -526 0
4 -47 -526 0
47 -79 -109 -4 -526 0
79 -48 -526 0
46 -48 -526 0
110 -48 -526 0
48 -79 -46 -110 -526 0
85 -52 -526 0
111 -52 -526 0
5 -52 -526 0
52 -85 -111 -5 -526 0
85 -53 -526 0
51 -53 -526 0
112 -53 -526 0
53 -85 -51 -112 -526 0
91 -57 -526 0
113 -57 -526 0
6 -57 -526 0
57 -91 -113 -6 -526 0
91 -58 -526 0
56 -58 -526 0
114 -58 -526 0
58 -91 -56 -114 -526 0
115 -62 -526 0
103 -62 -526 0
25 -62 -526 0
62 -115 -103 -25 -526 0
61 -63 -526 0
103 -63 -526 0
63 -61 -103 -526 0
61 -64 -526 0
31 -64 -526 0
104 -64 -526 0
64 -61 -31 -104 -526 0
116 -68 -526 0
105 -68 -526 0
26 -68 -526 0
68 -116 -105 -26 -526 0
67 -69 -526 0
105 -69 -526 0
69 -67 -105 -526 0
67 -70 -526 0
36 -70 -526 0
106 -70 -526 0
70 -67 -36 -106 -526 0
117 -74 -526 0
107 -74 -526 0
27 -74 -526 0
74 -117 -107 -27 -526 0
73 -75 -526 0
107 -75 -526 0
75 -73 -107 -526 0
73 -76 -526 0
41 -76 -526 0
108 -76 -526 0
76 -73 -41 -108 -526 0
118 -80 -526 0
109 -80 -526 0
28 -80 -526 0
80 -118 -109 -28 -526 0
79 -81 -526 0
109 -81 -526 0
81 -79 -109 -526 0
79 -82 -526 0
46 -82 -526 0
110 -82 -526 0
82 -79 -46 -110 -526 0
119 -86 -526 0
111 -86 -526 0
29 -86 -526 0
86 -119 -111 -29 -526 0
85 -87 -526 0
111 -87 -526 0
87 -85 -111 -526 0
85 -88 -526 0
51 -88 -526 0
112 -88 -526 0
88 -85 -51 -112 -526 0
120 -92 -526 0
113 -92 -526 0
30 -92 -526 0
92 -120 -113 -30 -526 0
91 -93 -526 0
113 -93 -526 0
93 -91 -113 -526 0
91 -94 -526 0
56 -94 -526 0
114 -94 -526 0
94 -91 -56 -114 -526 0
25 104 -526 0
-25 -104 -526 0
26 106 -526 0
-26 -106 -526 0
27 108 -526 0
-27 -108 -526 0
28 110 -526 0
-28 -110 -526 0
29 112 -526 0
-29 -112 -526 0
30 114 -526 0
-30 -114 -526 0
31 103 -526 0
-31 -103 -526 0
36 105 -526 0
-36 -105 -526 0
41 107 -526 0
-41 -107 -526 0
46 109 -526 0
-46 -109 -526 0
51 111 -526 0
-51 -111 -526 0
56 113 -526 0
-56 -113 -526 0
61 115 -526 0
-61 -115 -526 0
67 116 -526 0
-67 -116 -526 0
73 117 -526 0
-73 -117 -526 0
79 118 -526 0
-79 -118 -526 0
85 119 -526 0
-85 -119 -526 0
91 120 -526 0
-91 -120 -526 0
8 -122 -526 0
20 -122 -526 0
122 -8 -20 -526 0
8 -123 -526 0
23 -123 -526 0
123 -8 -23 -526 0
11 -124 -526 0
14 -124 -526 0
124 -11 -14 -526 0
11 -125 -526 0
17 -125 -526 0
125 -11 -17 -526 0
11 -126 -526 0
20 -126 -526 0
126 -11 -20 -526 0
11 -127 -526 0
23 -127 -526 0
127 -11 -23 -526 0
8 -128 -526 0
11 -128 -526 0
128 -8 -11 -526 0
14 -129 -526 0
17 -129 -526 0
129 -14 -17 -526 0
14 -130 -526 0
20 -130 -526 0
130 -14 -20 -526 0
14 -131 -526 0
23 -131 -526 0
131 -14 -23 -526 0
17 -132 -526 0
20 -132 -526 0
132 -17 -20 -526 0
17 -133 -526 0
23 -133 -526 0
133 -17 -23 -526 0
20 -134 -526 0
23 -134 -526 0
134 -20 -23 -526 0
8 -135 -526 0
14 -135 -526 0
135 -8 -14 -526 0
8 -136 -526 0
17 -136 -526 0
136 -8 -17 -526 0
137 138 -526 0
-137 -138 -526 0
137 -128 -526 0
137 -135 -526 0
137 -136 -526 0
137 -122 -526 0
137 -123 -526 0
137 -124 -526 0
137 -125 -526 0
137 -126 -526 0
137 -127 -526 0
137 -129 -526 0
137 -130 -526 0
137 -131 -526 0
137 -132 -526 0
137 -133 -526 0
137 -134 -526 0
128 135 136 122 123 124 125 126 127 129 130 131 132 133 134 -137 -526 0
138 -526 0
35 -174 -526 0
174 -35 -526 0
40 -179 -526 0
179 -40 -526 0
45 -184 -526 0
184 -45 -526 0
50 -189 -526 0
189 -50 -526 0
55 -194 -526 0
194 -55 -526 0
60 -199 -526 0
199 -60 -526 0
66 -204 -526 0
204 -66 -526 0
72 -210 -526 0
210 -72 -526 0
78 -216 -526 0
216 -78 -526 0
84 -222 -526 0
222 -84 -526 0
90 -228 -526 0
228 -90 -526 0
96 -234 -526 0
234 -96 -526 0
142 141 -526 0
31 -174 -142 -526 0
174 -31 -142 -526 0
36 -179 -142 -526 0
179 -36 -142 -526 0
41 -184 -142 -526 0
184 -41 -142 -526 0
46 -189 -142 -526 0
189 -46 -142 -526 0
51 -194 -142 -526 0
194 -51 -142 -526 0
56 -199 -142 -526 0
199 -56 -142 -526 0
61 -204 -142 -526 0
204 -61 -142 -526 0
67 -210 -142 -526 0
210 -67 -142 -526 0
73 -216 -142 -526 0
216 -73 -142 -526 0
79 -222 -142 -526 0
222 -79 -142 -526 0
85 -228 -142 -526 0
228 -85 -142 -526 0
91 -234 -142 -526 0
234 -91 -142 -526 0
150 -151 -141 -526 0
151 -150 -141 -526 0
152 -151 -141 -526 0
151 -152 -141 -526 0
153 -154 -141 -526 0
154 -153 -141 -526 0
155 -154 -141 -526 0
154 -155 -141 -526 0
156 -157 -141 -526 0
157 -156 -141 -526 0
158 -157 -141 -526 0
157 -158 -141 -526 0
159 -160 -141 -526 0
160 -159 -141 -526 0
161 -160 -141 -526 0
160 -161 -141 -526 0
162 -163 -141 -526 0
163 -162 -141 -526 0
164 -163 -141 -526 0
163 -164 -141 -526 0
165 -166 -141 -526 0
166 -165 -141 -526 0
167 -166 -141 -526 0
166 -167 -141 -526 0
177 -175 -141 -526 0
177 -176 -141 -526 0
175 176 -177 -141 -526 0
177 -178 -141 -526 0
178 -177 -141 -526 0
182 -180 -141 -526 0
182 -181 -141 -526 0
180 181 -182 -141 -526 0
182 -183 -141 -526 0
183 -182 -141 -526 0
187 -185 -141 -526 0
187 -186 -141 -526 0
185 186 -187 -141 -526 0
187 -188 -141 -526 0
188 -187 -141 -526 0
192 -190 -141 -526 0
192 -191 -141 -526 0
190 191 -192 -141 -526 0
192 -193 -141 -526 0
193 -192 -141 -526 0
197 -195 -141 -526 0
197 -196 -141 -526 0
195 196 -197 -141 -526 0
197 -198 -141 -526 0
198 -197 -141 -526 0
202 -200 -141 -526 0
202 -201 -141 -526 0
200 201 -202 -141 -526 0
202 -203 -141 -526 0
203 -202 -141 -526 0
208 -205 -141 -526 0
208 -206 -141 -526 0
208 -207 -141 -526 0
205 206 207 -208 -141 -526 0
208 -209 -141 -526 0
209 -208 -141 -526 0
214 -211 -141 -526 0
214 -212 -141 -526 0
214 -213 -141 -526 0
211 212 213 -214 -141 -526 0
214 -215 -141 -526 0
215 -214 -141 -526 0
220 -217 -141 -526 0
220 -218 -141 -526 0
220 -219 -141 -526 0
217 218 219 -220 -141 -526 0
220 -221 -141 -526 0
221 -220 -141 -526 0
226 -223 -141 -526 0
226 -224 -141 -526 0
226 -225 -141 -526 0
223 224 225 -226 -141 -526 0
226 -227 -141 -526 0
227 -226 -141 -526 0
232 -229 -141 -526 0
232 -230 -141 -526 0
232 -231 -141 -526 0
229 230 231 -232 -141 -526 0
232 -233 -141 -526 0
233 -232 -141 -526 0
238 -235 -141 -526 0
238 -236 -141 -526 0
238 -237 -141 -526 0
235 236 237 -238 -141 -526 0
238 -239 -141 -526 0
239 -238 -141 -526 0
204 -240 -141 -526 0
240 -204 -141 -526 0
210 -241 -141 -526 0
241 -210 -141 -526 0
216 -242 -141 -526 0
242 -216 -141 -526 0
222 -243 -141 -526 0
243 -222 -141 -526 0
228 -244 -141 -526 0
244 -228 -141 -526 0
234 -245 -141 -526 0
245 -234 -141 -526 0
204 -152 -141 -526 0
174 -152 -141 -526 0
152 -204 -174 -141 -526 0
210 -155 -141 -526 0
179 -155 -141 -526 0
155 -210 -179 -141 -526 0
216 -158 -141 -526 0
184 -158 -141 -526 0
158 -216 -184 -141 -526 0
222 -161 -141 -526 0
189 -161 -141 -526 0
161 -222 -189 -141 -526 0
228 -164 -141 -526 0
194 -164 -141 -526 0
164 -228 -194 -141 -526 0
234 -167 -141 -526 0
199 -167 -141 -526 0
167 -234 -199 -141 -526 0
204 -175 -141 -526 0
246 -175 -141 -526 0
175 -204 -246 -141 -526 0
204 -176 -141 -526 0
174 -176 -141 -526 0
247 -176 -141 -526 0
176 -204 -174 -247 -141 -526 0
210 -180 -141 -526 0
248 -180 -141 -526 0
145 -180 -141 -526 0
180 -210 -248 -145 -141 -526 0
210 -181 -141 -526 0
179 -181 -141 -526 0
249 -181 -141 -526 0
181 -210 -179 -249 -141 -526 0
216 -185 -141 -526 0
250 -185 -141 -526 0
146 -185 -141 -526 0
185 -216 -250 -146 -141 -526 0
216 -186 -141 -526 0
184 -186 -141 -526 0
251 -186 -141 -526 0
186 -216 -184 -251 -141 -526 0
222 -190 -141 -526 0
252 -190 -141 -526 0
147 -190 -141 -526 0
190 -222 -252 -147 -141 -526 0
222 -191 -141 -526 0
189 -191 -141 -526 0
253 -191 -141 -526 0
191 -222 -189 -253 -141 -526 0
228 -195 -141 -526 0
254 -195 -141 -526 0
148 -195 -141 -526 0
195 -228 -254 -148 -141 -526 0
228 -196 -141 -526 0
194 -196 -141 -526 0
255 -196 -141 -526 0
196 -228 -194 -255 -141 -526 0
234 -200 -141 -526 0
256 -200 -141 -526 0
149 -200 -141 -526 0
200 -234 -256 -149 -141 -526 0
234 -201 -141 -526 0
199 -201 -141 -526 0
257 -201 -141 -526 0
201 -234 -199 -257 -141 -526 0
258 -205 -141 -526 0
246 -205 -141 -526 0
168 -205 -141 -526 0
205 -258 -246 -168 -141 -526 0
204 -206 -141 -526 0
246 -206 -141 -526 0
206 -204 -246 -141 -526 0
204 -207 -141 -526 0
174 -207 -141 -526 0
247 -207 -141 -526 0
207 -204 -174 -247 -141 -526 0
259 -211 -141 -526 0
248 -211 -141 -526 0
169 -211 -141 -526 0
211 -259 -248 -169 -141 -526 0
210 -212 -141 -526 0
248 -212 -141 -526 0
212 -210 -248 -141 -526 0
210 -213 -141 -526 0
179 -213 -141 -526 0
249 -213 -141 -526 0
213 -210 -179 -249 -141 -526 0
260 -217 -141 -526 0
250 -217 -141 -526 0
170 -217 -141 -526 0
217 -260 -250 -170 -141 -526 0
216 -218 -141 -526 0
250 -218 -141 -526 0
218 -216 -250 -141 -526 0
216 -219 -141 -526 0
184 -219 -141 -526 0
251 -219 -141 -526 0
219 -216 -184 -251 -141 -526 0
261 -223 -141 -526 0
252 -223 -141 -526 0
171 -223 -141 -526 0
223 -261 -252 -171 -141 -526 0
222 -224 -141 -526 0
252 -224 -141 -526 0
224 -222 -252 -141 -526 0
222 -225 -141 -526 0
189 -225 -141 -526 0
253 -225 -141 -526 0
225 -222 -189 -253 -141 -526 0
262 -229 -141 -526 0
254 -229 -141 -526 0
172 -229 -141 -526 0
229 -262 -254 -172 -141 -526 0
228 -230 -141 -526 0
254 -230 -141 -526 0
230 -228 -254 -141 -526 0
228 -231 -141 -526 0
194 -231 -141 -526 0
255 -231 -141 -526 0
231 -228 -194 -255 -141 -526 0
263 -235 -141 -526 0
256 -235 -141 -526 0
173 -235 -141 -526 0
235 -263 -256 -173 -141 -526 0
234 -236 -141 -526 0
256 -236 -141 -526 0
236 -234 -256 -141 -526 0
234 -237 -141 -526 0
199 -237 -141 -526 0
257 -237 -141 -526 0
237 -234 -199 -257 -141 -526 0
168 247 -141 -526 0
-168 -247 -141 -526 0
169 249 -141 -526 0
-169 -249 -141 -526 0
170 251 -141 -526 0
-170 -251 -141 -526 0
171 253 -141 -526 0
-171 -253 -141 -526 0
172 255 -141 -526 0
-172 -255 -141 -526 0
173 257 -141 -526 0
-173 -257 -141 -526 0
174 246 -141 -526 0
-174 -246 -141 -526 0
179 248 -141 -526 0
-179 -248 -141 -526 0
184 250 -141 -526 0
-184 -250 -141 -526 0
189 252 -141 -526 0
-189 -252 -141 -526 0
194 254 -141 -526 0
-194 -254 -141 -526 0
199 256 -141 -526 0
-199 -256 -141 -526 0
204 258 -141 -526 0
-204 -258 -141 -526 0
210 259 -141 -526 0
-210 -259 -141 -526 0
216 260 -141 -526 0
-216 -260 -141 -526 0
222 261 -141 -526 0
-222 -261 -141 -526 0
228 262 -141 -526 0
-228 -262 -141 -526 0
234 263 -141 -526 0
-234 -263 -141 -526 0
151 -265 -141 -526 0
163 -265 -141 -526 0
265 -151 -163 -141 -526 0
151 -266 -141 -526 0
166 -266 -141 -526 0
266 -151 -166 -141 -526 0
154 -267 -141 -526 0
157 -267 -141 -526 0
267 -154 -157 -141 -526 0
154 -268 -141 -526 0
160 -268 -141 -526 0
268 -154 -160 -141 -526 0
154 -269 -141 -526 0
163 -269 -141 -526 0
269 -154 -163 -141 -526 0
154 -270 -141 -526 0
166 -270 -141 -526 0
270 -154 -166 -141 -526 0
151 -271 -141 -526 0
154 -271 -141 -526 0
271 -151 -154 -141 -526 0
157 -272 -141 -526 0
160 -272 -141 -526 0
272 -157 -160 -141 -526 0
157 -273 -141 -526 0
163 -273 -141 -526 0
273 -157 -163 -141 -526 0
157 -274 -141 -526 0
166 -274 -141 -526 0
274 -157 -166 -141 -526 0
160 -275 -141 -526 0
163 -275 -141 -526 0
275 -160 -163 -141 -526 0
160 -276 -141 -526 0
166 -276 -141 -526 0
276 -160 -166 -141 -526 0
163 -277 -141 -526 0
166 -277 -141 -526 0
277 -163 -166 -141 -526 0
151 -278 -141 -526 0
157 -278 -141 -526 0
278 -151 -157 -141 -526 0
151 -279 -141 -526 0
160 -279 -141 -526 0
279 -151 -160 -141 -526 0
280 281 -141 -526 0
-280 -281 -141 -526 0
280 -271 -141 -526 0
280 -278 -141 -526 0
280 -279 -141 -526 0
280 -265 -141 -526 0
280 -266 -141 -526 0
280 -267 -141 -526 0
280 -268 -141 -526 0
280 -269 -141 -526 0
280 -270 -141 -526 0
280 -272 -141 -526 0
280 -273 -141 -526 0
280 -274 -141 -526 0
280 -275 -141 -526 0
280 -276 -141 -526 0
280 -277 -141 -526 0
271 278 279 265 266 267 268 269 270 272 273 274 275 276 277 -280 -141 -526 0
281 -141 -526 0
178 -319 -141 -526 0
319 -178 -141 -526 0
183 -324 -141 -526 0
324 -183 -141 -526 0
188 -329 -141 -526 0
329 -188 -141 -526 0
193 -334 -141 -526 0
334 -193 -141 -526 0
198 -339 -141 -526 0
339 -198 -141 -526 0
203 -344 -141 -526 0
344 -203 -141 -526 0
209 -349 -141 -526 0
349 -209 -141 -526 0
215 -355 -141 -526 0
355 -215 -141 -526 0
221 -361 -141 -526 0
361 -221 -141 -526 0
227 -367 -141 -526 0
367 -227 -141 -526 0
233 -373 -141 -526 0
373 -233 -141 -526 0
239 -379 -141 -526 0
379 -239 -141 -526 0
287 286 -141 -526 0
31 -319 -284 -287 -141 -526 0
319 -31 -284 -287 -141 -526 0
36 -324 -284 -287 -141 -526 0
324 -36 -284 -287 -141 -526 0
41 -329 -284 -287 -141 -526 0
329 -41 -284 -287 -141 -526 0
46 -334 -284 -287 -141 -526 0
334 -46 -284 -287 -141 -526 0
51 -339 -284 -287 -141 -526 0
339 -51 -284 -287 -141 -526 0
56 -344 -284 -287 -141 -526 0
344 -56 -284 -287 -141 -526 0
61 -349 -284 -287 -141 -526 0
349 -61 -284 -287 -141 -526 0
67 -355 -284 -287 -141 -526 0
355 -67 -284 -287 -141 -526 0
73 -361 -284 -287 -141 -526 0
361 -73 -284 -287 -141 -526 0
79 -367 -284 -287 -141 -526 0
367 -79 -284 -287 -141 -526 0
85 -373 -284 -287 -141 -526 0
373 -85 -284 -287 -141 -526 0
91 -379 -284 -287 -141 -526 0
379 -91 -284 -287 -141 -526 0
174 -319 -285 -287 -141 -526 0
319 -174 -285 -287 -141 -526 0
179 -324 -285 -287 -141 -526 0
324 -179 -285 -287 -141 -526 0
184 -329 -285 -287 -141 -526 0
329 -184 -285 -287 -141 -526 0
189 -334 -285 -287 -141 -526 0
334 -189 -285 -287 -141 -526 0
194 -339 -285 -287 -141 -526 0
339 -194 -285 -287 -141 -526 0
199 -344 -285 -287 -141 -526 0
344 -199 -285 -287 -141 -526 0
204 -349 -285 -287 -141 -526 0
349 -204 -285 -287 -141 -526 0
210 -355 -285 -287 -141 -526 0
355 -210 -285 -287 -141 -526 0
216 -361 -285 -287 -141 -526 0
361 -216 -285 -287 -141 -526 0
222 -367 -285 -287 -141 -526 0
367 -222 -285 -287 -141 -526 0
228 -373 -285 -287 -141 -526 0
373 -228 -285 -287 -141 -526 0
234 -379 -285 -287 -141 -526 0
379 -234 -285 -287 -141 -526 0
284 285 -287 -141 -526 0
295 -296 -286 -141 -526 0
296 -295 -286 -141 -526 0
297 -296 -286 -141 -526 0
296 -297 -286 -141 -526 0
298 -299 -286 -141 -526 0
299 -298 -286 -141 -526 0
300 -299 -286 -141 -526 0
299 -300 -286 -141 -526 0
301 -302 -286 -141 -526 0
302 -301 -286 -141 -526 0
303 -302 -286 -141 -526 0
302 -303 -286 -141 -526 0
304 -305 -286 -141 -526 0
305 -304 -286 -141 -526 0
306 -305 -286 -141 -526 0
305 -306 -286 -141 -526 0
307 -308 -286 -141 -526 0
308 -307 -286 -141 -526 0
309 -308 -286 -141 -526 0
308 -309 -286 -141 -526 0
310 -311 -286 -141 -526 0
311 -310 -286 -141 -526 0
312 -311 -286 -141 -526 0
311 -312 -286 -141 -526 0
322 -320 -286 -141 -526 0
322 -321 -286 -141 -526 0
320 321 -322 -286 -141 -526 0
322 -323 -286 -141 -526 0
323 -322 -286 -141 -526 0
327 -325 -286 -141 -526 0
327 -326 -286 -141 -526 0
325 326 -327 -286 -141 -526 0
327 -328 -286 -141 -526 0
328 -327 -286 -141 -526 0
332 -330 -286 -141 -526 0
332 -331 -286 -141 -526 0
330 331 -332 -286 -141 -526 0
332 -333 -286 -141 -526 0
333 -332 -286 -141 -526 0
337 -335 -286 -141 -526 0
337 -336 -286 -141 -526 0
335 336 -337 -286 -141 -526 0
337 -338 -286 -141 -526 0
338 -337 -286 -141 -526 0
342 -340 -286 -141 -526 0
342 -341 -286 -141 -526 0
340 341 -342 -286 -141 -526 0
342 -343 -286 -141 -526 0
343 -342 -286 -141 -526 0
347 -345 -286 -141 -526 0
347 -346 -286 -141 -526 0
345 346 -347 -286 -141 -526 0
347 -348 -286 -141 -526 0
348 -347 -286 -141 -526 0
353 -350 -286 -141 -526 0
353 -351 -286 -141 -526 0
353 -352 -286 -141 -526 0
350 351 352 -353 -286 -141 -526 0
353 -354 -286 -141 -526 0
354 -353 -286 -141 -526 0
359 -356 -286 -141 -526 0
359 -357 -286 -141 -526 0
359 -358 -286 -141 -526 0
356 357 358 -359 -286 -141 -526 0
359 -360 -286 -141 -526 0
360 -359 -286 -141 -526 0
365 -362 -286 -141 -526 0
365 -363 -286 -141 -526 0
365 -364 -286 -141 -526 0
362 363 364 -365 -286 -141 -526 0
365 -366 -286 -141 -526 0
366 -365 -286 -141 -526 0
371 -368 -286 -141 -526 0
371 -369 -286 -141 -526 0
371 -370 -286 -141 -526 0
368 369 370 -371 -286 -141 -526 0
371 -372 -286 -141 -526 0
372 -371 -286 -141 -526 0
377 -374 -286 -141 -526 0
377 -375 -286 -141 -526 0
377 -376 -286 -141 -526 0
374 375 376 -377 -286 -141 -526 0
377 -378 -286 -141 -526 0
378 -377 -286 -141 -526 0
383 -380 -286 -141 -526 0
383 -381 -286 -141 -526 0
383 -382 -286 -141 -526 0
380 381 382 -383 -286 -141 -526 0
383 -384 -286 -141 -526 0
384 -383 -286 -141 -526 0
349 -385 -286 -141 -526 0
385 -349 -286 -141 -526 0
355 -386 -286 -141 -526 0
386 -355 -286 -141 -526 0
361 -387 -286 -141 -526 0
387 -361 -286 -141 -526 0
367 -388 -286 -141 -526 0
388 -367 -286 -141 -526 0
373 -389 -286 -141 -526 0
389 -373 -286 -141 -526 0
379 -390 -286 -141 -526 0
390 -379 -286 -141 -526 0
349 -297 -286 -141 -526 0
319 -297 -286 -141 -526 0
297 -349 -319 -286 -141 -526 0
355 -300 -286 -141 -526 0
324 -300 -286 -141 -526 0
300 -355 -324 -286 -141 -526 0
361 -303 -286 -141 -526 0
329 -303 -286 -141 -526 0
303 -361 -329 -286 -141 -526 0
367 -306 -286 -141 -526 0
334 -306 -286 -141 -526 0
306 -367 -334 -286 -141 -526 0
373 -309 -286 -141 -526 0
339 -309 -286 -141 -526 0
309 -373 -339 -286 -141 -526 0
379 -312 -286 -141 -526 0
344 -312 -286 -141 -526 0
312 -379 -344 -286 -141 -526 0
349 -320 -286 -141 -526 0
391 -320 -286 -141 -526 0
320 -349 -391 -286 -141 -526 0
349 -321 -286 -141 -526 0
319 -321 -286 -141 -526 0
392 -321 -286 -141 -526 0
321 -349 -319 -392 -286 -141 -526 0
355 -325 -286 -141 -526 0
393 -325 -286 -141 -526 0
290 -325 -286 -141 -526 0
325 -355 -393 -290 -286 -141 -526 0
355 -326 -286 -141 -526 0
324 -326 -286 -141 -526 0
394 -326 -286 -141 -526 0
326 -355 -324 -394 -286 -141 -526 0
361 -330 -286 -141 -526 0
395 -330 -286 -141 -526 0
291 -330 -286 -141 -526 0
330 -361 -395 -291 -286 -141 -526 0
361 -331 -286 -141 -526 0
329 -331 -286 -141 -526 0
396 -331 -286 -141 -526 0
331 -361 -329 -396 -286 -141 -526 0
367 -335 -286 -141 -526 0
397 -335 -286 -141 -526 0
292 -335 -286 -141 -526 0
335 -367 -397 -292 -286 -141 -526 0
367 -336 -286 -141 -526 0
334 -336 -286 -141 -526 0
398 -336 -286 -141 -526 0
336 -367 -334 -398 -286 -141 -526 0
373 -340 -286 -141 -526 0
399 -340 -286 -141 -526 0
293 -340 -286 -141 -526 0
340 -373 -399 -293 -286 -141 -526 0
373 -341 -286 -141 -526 0
339 -341 -286 -141 -526 0
400 -341 -286 -141 -526 0
341 -373 -339 -400 -286 -141 -526 0
379 -345 -286 -141 -526 0
401 -345 -286 -141 -526 0
294 -345 -286 -141 -526 0
345 -379 -401 -294 -286 -141 -526 0
379 -346 -286 -141 -526 0
344 -346 -286 -141 -526 0
402 -346 -286 -141 -526 0
346 -379 -344 -402 -286 -141 -526 0
403 -350 -286 -141 -526 0
391 -350 -286 -141 -526 0
313 -350 -286 -141 -526 0
350 -403 -391 -313 -286 -141 -526 0
349 -351 -286 -141 -526 0
391 -351 -286 -141 -526 0
351 -349 -391 -286 -141 -526 0
349 -352 -286 -141 -526 0
319 -352 -286 -141 -526 0
392 -352 -286 -141 -526 0
352 -349 -319 -392 -286 -141 -526 0
404 -356 -286 -141 -526 0
393 -356 -286 -141 -526 0
314 -356 -286 -141 -526 0
356 -404 -393 -314 -286 -141 -526 0
355 -357 -286 -141 -526 0
393 -357 -286 -141 -526 0
357 -355 -393 -286 -141 -526 0
355 -358 -286 -141 -526 0
324 -358 -286 -141 -526 0
394 -358 -286 -141 -526 0
358 -355 -324 -394 -286 -141 -526 0
405 -362 -286 -141 -526 0
395 -362 -286 -141 -526 0
315 -362 -286 -141 -526 0
362 -405 -395 -315 -286 -141 -526 0
361 -363 -286 -141 -526 0
395 -363 -286 -141 -526 0
363 -361 -395 -286 -141 -526 0
361 -364 -286 -141 -526 0
329 -364 -286 -141 -526 0
396 -364 -286 -141 -526 0
364 -361 -329 -396 -286 -141 -526 0
406 -368 -286 -141 -526 0
397 -368 -286 -141 -526 0
316 -368 -286 -141 -526 0
368 -406 -397 -316 -286 -141 -526 0
367 -369 -286 -141 -526 0
397 -369 -286 -141 -526 0
369 -367 -397 -286 -141 -526 0
367 -370 -286 -141 -526 0
334 -370 -286 -141 -526 0
398 -370 -286 -141 -526 0
370 -367 -334 -398 -286 -141 -526 0
407 -374 -286 -141 -526 0
399 -374 -286 -141 -526 0
317 -374 -286 -141 -526 0
374 -407 -399 -317 -286 -141 -526 0
373 -375 -286 -141 -526 0
399 -375 -286 -141 -526 0
375 -373 -399 -286 -141 -526 0
373 -376 -286 -141 -526 0
339 -376 -286 -141 -526 0
400 -376 -286 -141 -526 0
376 -373 -339 -400 -286 -141 -526 0
408 -380 -286 -141 -526 0
401 -380 -286 -141 -526 0
318 -380 -286 -141 -526 0
380 -408 -401 -318 -286 -141 -526 0
379 -381 -286 -141 -526 0
401 -381 -286 -141 -526 0
381 -379 -401 -286 -141 -526 0
379 -382 -286 -141 -526 0
344 -382 -286 -141 -526 0
402 -382 -286 -141 -526 0
382 -379 -344 -402 -286 -141 -526 0
313 392 -286 -141 -526 0
-313 -392 -286 -141 -526 0
314 394 -286 -141 -526 0
-314 -394 -286 -141 -526 0
315 396 -286 -141 -526 0
-315 -396 -286 -141 -526 0
316 398 -286 -141 -526 0
-316 -398 -286 -141 -526 0
317 400 -286 -141 -526 0
-317 -400 -286 -141 -526 0
318 402 -286 -141 -526 0
-318 -402 -286 -141 -526 0
319 391 -286 -141 -526 0
-319 -391 -286 -141 -526 0
324 393 -286 -141 -526 0
-324 -393 -286 -141 -526 0
329 395 -286 -141 -526 0
-329 -395 -286 -141 -526 0
334 397 -286 -141 -526 0
-334 -397 -286 -141 -526 0
339 399 -286 -141 -526 0
-339 -399 -286 -141 -526 0
344 401 -286 -141 -526 0
-344 -401 -286 -141 -526 0
349 403 -286 -141 -526 0
-349 -403 -286 -141 -526 0
355 404 -286 -141 -526 0
-355 -404 -286 -141 -526 0
361 405 -286 -141 -526 0
-361 -405 -286 -141 -526 0
367 406 -286 -141 -526 0
-367 -406 -286 -141 -526 0
373 407 -286 -141 -526 0
-373 -407 -286 -141 -526 0
379 408 -286 -141 -526 0
-379 -408 -286 -141 -526 0
296 -410 -286 -141 -526 0
308 -410 -286 -141 -526 0
410 -296 -308 -286 -141 -526 0
296 -411 -286 -141 -526 0
311 -411 -286 -141 -526 0
411 -296 -311 -286 -141 -526 0
299 -412 -286 -141 -526 0
302 -412 -286 -141 -526 0
412 -299 -302 -286 -141 -526 0
299 -413 -286 -141 -526 0
305 -413 -286 -141 -526 0
413 -299 -305 -286 -141 -526 0
299 -414 -286 -141 -526 0
308 -414 -286 -141 -526 0
414 -299 -308 -286 -141 -526 0
299 -415 -286 -141 -526 0
311 -415 -286 -141 -526 0
415 -299 -311 -286 -141 -526 0
296 -416 -286 -141 -526 0
299 -416 -286 -141 -526 0
416 -296 -299 -286 -141 -526 0
302 -417 -286 -141 -526 0
305 -417 -286 -141 -526 0
417 -302 -305 -286 -141 -526 0
302 -418 -286 -141 -526 0
308 -418 -286 -141 -526 0
418 -302 -308 -286 -141 -526 0
302 -419 -286 -141 -526 0
311 -419 -286 -141 -526 0
419 -302 -311 -286 -141 -526 0
305 -420 -286 -141 -526 0
308 -420 -286 -141 -526 0
420 -305 -308 -286 -141 -526 0
305 -421 -286 -141 -526 0
311 -421 -286 -141 -526 0
421 -305 -311 -286 -141 -526 0
308 -422 -286 -141 -526 0
311 -422 -286 -141 -526 0
422 -308 -311 -286 -141 -526 0
296 -423 -286 -141 -526 0
302 -423 -286 -141 -526 0
423 -296 -302 -286 -141 -526 0
296 -424 -286 -141 -526 0
305 -424 -286 -141 -526 0
424 -296 -305 -286 -141 -526 0
425 426 -286 -141 -526 0
-425 -426 -286 -141 -526 0
425 -416 -286 -141 -526 0
425 -423 -286 -141 -526 0
425 -424 -286 -141 -526 0
425 -410 -286 -141 -526 0
425 -411 -286 -141 -526 0
425 -412 -286 -141 -526 0
425 -413 -286 -141 -526 0
425 -414 -286 -141 -526 0
425 -415 -286 -141 -526 0
425 -417 -286 -141 -526 0
425 -418 -286 -141 -526 0
425 -419 -286 -141 -526 0
425 -420 -286 -141 -526 0
425 -421 -286 -141 -526 0
425 -422 -286 -141 -526 0
416 423 424 410 411 412 413 414 415 417 418 419 420 421 422 -425 -286 -141 -526 0
426 -286 -141 -526 0
323 -465 -286 -141 -526 0
465 -323 -286 -141 -526 0
328 -470 -286 -141 -526 0
470 -328 -286 -141 -526 0
333 -475 -286 -141 -526 0
475 -333 -286 -141 -526 0
338 -480 -286 -141 -526 0
480 -338 -286 -141 -526 0
343 -485 -286 -141 -526 0
485 -343 -286 -141 -526 0
348 -490 -286 -141 -526 0
490 -348 -286 -141 -526 0
354 -495 -286 -141 -526 0
495 -354 -286 -141 -526 0
360 -501 -286 -141 -526 0
501 -360 -286 -141 -526 0
366 -507 -286 -141 -526 0
507 -366 -286 -141 -526 0
372 -513 -286 -141 -526 0
513 -372 -286 -141 -526 0
378 -519 -286 -141 -526 0
519 -378 -286 -141 -526 0
384 -525 -286 -141 -526 0
525 -384 -286 -141 -526 0
31 -465 -429 -286 -141 -526 0
465 -31 -429 -286 -141 -526 0
36 -470 -429 -286 -141 -526 0
470 -36 -429 -286 -141 -526 0
41 -475 -429 -286 -141 -526 0
475 -41 -429 -286 -141 -526 0
46 -480 -429 -286 -141 -526 0
480 -46 -429 -286 -141 -526 0
51 -485 -429 -286 -141 -526 0
485 -51 -429 -286 -141 -526 0
56 -490 -429 -286 -141 -526 0
490 -56 -429 -286 -141 -526 0
61 -495 -429 -286 -141 -526 0
495 -61 -429 -286 -141 -526 0
67 -501 -429 -286 -141 -526 0
501 -67 -429 -286 -141 -526 0
73 -507 -429 -286 -141 -526 0
507 -73 -429 -286 -141 -526 0
79 -513 -429 -286 -141 -526 0
513 -79 -429 -286 -141 -526 0
85 -519 -429 -286 -141 -526 0
519 -85 -429 -286 -141 -526 0
91 -525 -429 -286 -141 -526 0
525 -91 -429 -286 -141 -526 0
174 -465 -430 -286 -141 -526 0
465 -174 -430 -286 -141 -526 0
179 -470 -430 -286 -141 -526 0
470 -179 -430 -286 -141 -526 0
184 -475 -430 -286 -141 -526 0
475 -184 -430 -286 -141 -526 0
189 -480 -430 -286 -141 -526 0
480 -189 -430 -286 -141 -526 0
194 -485 -430 -286 -141 -526 0
485 -194 -430 -286 -141 -526 0
199 -490 -430 -286 -141 -526 0
490 -199 -430 -286 -141 -526 0
204 -495 -430 -286 -141 -526 0
495 -204 -430 -286 -141 -526 0
210 -501 -430 -286 -141 -526 0
501 -210 -430 -286 -141 -526 0
216 -507 -430 -286 -141 -526 0
507 -216 -430 -286 -141 -526 0
222 -513 -430 -286 -141 -526 0
513 -222 -430 -286 -141 -526 0
228 -519 -430 -286 -141 -526 0
519 -228 -430 -286 -141 -526 0
234 -525 -430 -286 -141 -526 0
525 -234 -430 -286 -141 -526 0
319 -465 -431 -286 -141 -526 0
465 -319 -431 -286 -141 -526 0
324 -470 -431 -286 -141 -526 0
470 -324 -431 -286 -141 -526 0
329 -475 -431 -286 -141 -526 0
475 -329 -431 -286 -141 -526 0
334 -480 -431 -286 -141 -526 0
480 -334 -431 -286 -141 -526 0
339 -485 -431 -286 -141 -526 0
485 -339 -431 -286 -141 -526 0
344 -490 -431 -286 -141 -526 0
490 -344 -431 -286 -141 -526 0
349 -495 -431 -286 -141 -526 0
495 -349 -431 -286 -141 -526 0
355 -501 -431 -286 -141 -526 0
501 -355 -431 -286 -141 -526 0
361 -507 -431 -286 -141 -526 0
507 -361 -431 -286 -141 -526 0
367 -513 -431 -286 -141 -526 0
513 -367 -431 -286 -141 -526 0
373 -519 -431 -286 -141 -526 0
519 -373 -431 -286 -141 -526 0
379 -525 -431 -286 -141 -526 0
525 -379 -431 -286 -141 -526 0
429 430 431 -286 -141 -526 0
526 527 0
31 36 41 46 51 56 61 67 73 79 85 91 -527 0
